(set-info :smt-lib-version 2.6)
(set-info :category "crafted")
(set-info :source |Christoph M. Wintersteiger (cwinter@microsoft.com). Randomly generated floating-point testcases.|)
; Rounding mode: to zero
; Precision: double (11/53)
; X = -zero {- 0 -1023 (-0)}
; Y = 1.941595655460703451211657011299394071102142333984375p-651 {+ 4240569843066502 -651 (2.07793e-196)}
; -zero / 1.941595655460703451211657011299394071102142333984375p-651 == -zero
; [HW: -zero] 

; mpf : - 0 -1023
; mpfd: - 0 -1023 (-0) class: -0
; hwf : - 0 -1023 (-0) class: -0

(set-logic QF_FP)
(set-info :status unsat)
(define-sort FPN () (_ FloatingPoint 11 53))
(declare-fun x () FPN)
(declare-fun y () FPN)
(declare-fun r () FPN)
(assert (= x (fp #b1 #b00000000000 #b0000000000000000000000000000000000000000000000000000)))
(assert (= y (fp #b0 #b00101110100 #b1111000100001100011010011011001001000010011010000110)))
(assert (= r (fp #b1 #b00000000000 #b0000000000000000000000000000000000000000000000000000)))
(assert  (not (= (fp.div roundTowardZero x y) r)))
(check-sat)
(exit)
